NAME : XML100_2366_26
DIMENSION : 101
NB_CLUSTERS : 3
CLUSTERING_ALG : KMedoids
CLUSTERING_PARAMS : k(2)
CLUSTERS
1 0
2 2 4 5 8 9 10 11 13 15 18 20 29 32 36 39 40 44 45 47 51 52 54 57 58 61 62 64 67 69 71 72 74 75 77 80 82 83 84 85 86 87 89 90 91 94 95 96 99 100
3 1 3 6 7 12 14 16 17 19 21 22 23 24 25 26 27 28 30 31 33 34 35 37 38 41 42 43 46 48 49 50 53 55 56 59 60 63 65 66 68 70 73 76 78 79 81 88 92 93 97 98
EOF